70
1194
35
0 1
0 3
0 4
0 5
0 6
0 11
0 16
0 17
0 19
0 21
0 22
0 23
0 25
0 26
0 27
0 30
0 32
0 33
0 36
0 37
0 38
0 39
0 40
0 46
0 48
0 49
0 51
0 53
0 55
0 57
0 58
0 59
0 63
0 64
0 65
0 66
0 67
0 68
1 2
1 4
1 10
1 11
1 12
1 15
1 18
1 19
1 21
1 22
1 24
1 25
1 26
1 27
1 28
1 29
1 30
1 31
1 32
1 33
1 34
1 37
1 38
1 39
1 42
1 45
1 47
1 50
1 53
1 55
1 60
1 62
1 67
1 68
1 69
2 5
2 10
2 14
2 19
2 20
2 28
2 29
2 33
2 35
2 36
2 38
2 39
2 40
2 45
2 47
2 50
2 51
2 52
2 53
2 55
2 57
2 60
2 62
2 64
2 68
3 5
3 8
3 11
3 18
3 19
3 22
3 23
3 28
3 30
3 32
3 33
3 34
3 35
3 37
3 39
3 40
3 42
3 46
3 47
3 49
3 50
3 54
3 56
3 57
3 60
3 61
3 63
3 64
3 65
3 66
3 68
3 69
4 6
4 11
4 12
4 14
4 15
4 17
4 22
4 24
4 25
4 28
4 29
4 32
4 34
4 35
4 37
4 41
4 46
4 48
4 49
4 50
4 51
4 52
4 53
4 55
4 56
4 57
4 58
4 60
4 62
4 63
4 65
4 66
4 68
5 6
5 7
5 8
5 10
5 11
5 12
5 14
5 16
5 21
5 22
5 24
5 25
5 27
5 30
5 33
5 39
5 40
5 41
5 42
5 43
5 44
5 45
5 47
5 48
5 49
5 50
5 51
5 53
5 54
5 55
5 56
5 58
5 59
5 61
5 64
5 65
5 66
5 67
5 68
6 7
6 8
6 9
6 10
6 11
6 12
6 16
6 18
6 21
6 22
6 23
6 25
6 26
6 27
6 28
6 29
6 30
6 32
6 33
6 34
6 35
6 36
6 38
6 39
6 43
6 45
6 46
6 50
6 53
6 56
6 57
6 58
6 59
6 60
6 61
6 63
6 64
6 67
6 69
7 10
7 12
7 15
7 16
7 18
7 19
7 22
7 24
7 26
7 27
7 28
7 30
7 31
7 32
7 33
7 36
7 37
7 38
7 39
7 43
7 45
7 48
7 49
7 58
7 61
7 64
7 65
7 66
7 67
7 68
7 69
8 9
8 10
8 11
8 15
8 16
8 17
8 24
8 26
8 27
8 32
8 34
8 35
8 37
8 38
8 40
8 42
8 45
8 46
8 47
8 51
8 53
8 56
8 61
8 67
9 13
9 16
9 17
9 18
9 20
9 24
9 25
9 26
9 28
9 30
9 34
9 35
9 36
9 38
9 39
9 40
9 41
9 42
9 45
9 46
9 47
9 50
9 51
9 53
9 56
9 57
9 58
9 59
9 61
9 63
9 64
9 65
9 67
9 69
10 11
10 13
10 17
10 19
10 25
10 30
10 35
10 37
10 38
10 40
10 41
10 42
10 43
10 47
10 51
10 52
10 54
10 56
10 57
10 58
10 60
10 61
10 63
10 65
10 66
10 67
10 68
11 12
11 15
11 16
11 17
11 19
11 21
11 22
11 24
11 31
11 37
11 43
11 44
11 45
11 47
11 48
11 51
11 53
11 55
11 56
11 60
11 65
11 66
11 67
11 68
12 14
12 15
12 25
12 27
12 29
12 30
12 31
12 33
12 34
12 35
12 36
12 39
12 40
12 41
12 42
12 43
12 45
12 47
12 50
12 53
12 54
12 55
12 57
12 58
12 59
12 60
12 61
12 62
12 65
12 69
13 15
13 16
13 17
13 20
13 22
13 23
13 27
13 28
13 29
13 30
13 31
13 32
13 33
13 37
13 38
13 40
13 41
13 42
13 43
13 45
13 47
13 48
13 50
13 51
13 52
13 54
13 55
13 56
13 58
13 61
13 62
13 63
13 64
13 65
13 66
13 67
13 69
14 15
14 16
14 21
14 22
14 24
14 26
14 32
14 35
14 36
14 37
14 39
14 40
14 41
14 44
14 45
14 46
14 48
14 49
14 51
14 52
14 53
14 54
14 55
14 57
14 62
14 64
14 67
14 68
15 18
15 19
15 22
15 23
15 26
15 35
15 37
15 39
15 43
15 49
15 50
15 52
15 55
15 56
15 57
15 60
15 62
15 64
15 65
15 67
15 68
16 21
16 22
16 25
16 26
16 28
16 29
16 31
16 34
16 36
16 41
16 43
16 45
16 48
16 50
16 52
16 54
16 56
16 57
16 58
16 59
16 62
16 63
16 65
16 67
16 69
17 18
17 19
17 21
17 22
17 23
17 24
17 25
17 26
17 28
17 29
17 32
17 33
17 34
17 35
17 36
17 37
17 38
17 39
17 41
17 43
17 44
17 45
17 47
17 51
17 54
17 56
17 57
17 59
17 60
17 63
17 64
17 66
17 67
17 69
18 21
18 22
18 24
18 25
18 30
18 33
18 36
18 38
18 39
18 41
18 47
18 48
18 50
18 53
18 56
18 58
18 59
18 62
18 65
18 66
18 68
18 69
19 21
19 22
19 24
19 27
19 28
19 31
19 33
19 37
19 39
19 42
19 43
19 44
19 48
19 50
19 52
19 57
19 58
19 60
19 62
19 63
19 65
19 66
19 67
19 69
20 22
20 24
20 28
20 29
20 31
20 32
20 36
20 38
20 40
20 42
20 46
20 48
20 49
20 52
20 54
20 57
20 59
20 65
20 66
20 68
21 22
21 23
21 24
21 25
21 29
21 31
21 33
21 35
21 36
21 37
21 42
21 43
21 45
21 51
21 53
21 55
21 56
21 57
21 60
21 61
21 63
21 64
21 65
21 67
21 69
22 24
22 27
22 28
22 32
22 34
22 40
22 41
22 42
22 47
22 48
22 50
22 51
22 52
22 53
22 55
22 58
22 60
22 61
22 62
22 63
22 65
22 67
23 25
23 26
23 27
23 29
23 30
23 31
23 36
23 40
23 42
23 47
23 48
23 49
23 50
23 51
23 52
23 54
23 55
23 56
23 58
23 61
23 62
23 63
23 66
24 25
24 26
24 27
24 29
24 30
24 32
24 34
24 35
24 41
24 42
24 43
24 44
24 45
24 47
24 49
24 50
24 52
24 53
24 56
24 58
24 60
24 61
24 62
24 64
24 66
24 67
24 68
24 69
25 26
25 27
25 32
25 33
25 35
25 36
25 37
25 38
25 40
25 42
25 51
25 53
25 54
25 60
25 65
25 66
25 67
25 69
26 27
26 28
26 34
26 37
26 38
26 39
26 40
26 45
26 49
26 50
26 52
26 53
26 54
26 57
26 58
26 61
26 62
26 63
26 64
27 28
27 30
27 31
27 34
27 36
27 37
27 38
27 39
27 41
27 42
27 44
27 48
27 49
27 50
27 54
27 58
27 60
27 62
27 63
27 64
27 65
27 66
27 68
28 29
28 35
28 36
28 38
28 39
28 40
28 42
28 46
28 47
28 49
28 50
28 52
28 54
28 56
28 57
28 67
28 68
29 32
29 34
29 35
29 41
29 42
29 44
29 45
29 47
29 48
29 50
29 51
29 52
29 53
29 55
29 56
29 57
29 60
29 64
29 65
29 66
30 31
30 34
30 36
30 39
30 44
30 45
30 46
30 48
30 49
30 50
30 56
30 57
30 60
30 61
30 63
30 65
30 69
31 33
31 35
31 38
31 40
31 41
31 43
31 45
31 47
31 48
31 53
31 54
31 59
31 60
31 62
31 64
32 33
32 34
32 35
32 36
32 37
32 38
32 39
32 40
32 42
32 43
32 47
32 50
32 51
32 56
32 58
32 59
32 60
32 62
32 64
32 65
32 67
32 69
33 34
33 35
33 36
33 37
33 38
33 39
33 41
33 42
33 43
33 44
33 46
33 49
33 52
33 53
33 54
33 56
33 57
33 58
33 59
33 60
33 62
33 64
33 67
33 69
34 35
34 40
34 41
34 45
34 46
34 48
34 50
34 51
34 56
34 57
34 60
34 61
34 62
34 63
34 64
34 65
34 66
34 68
34 69
35 37
35 38
35 43
35 45
35 49
35 50
35 51
35 53
35 54
35 56
35 58
35 60
35 63
35 66
36 37
36 41
36 44
36 45
36 46
36 47
36 48
36 52
36 53
36 54
36 55
36 56
36 60
36 61
36 63
36 64
36 65
36 67
36 68
37 40
37 41
37 45
37 47
37 48
37 49
37 50
37 51
37 52
37 55
37 56
37 60
37 62
37 63
37 68
37 69
38 39
38 40
38 41
38 46
38 47
38 48
38 49
38 51
38 52
38 53
38 55
38 57
38 60
38 61
38 62
38 63
38 65
38 67
38 68
39 41
39 44
39 46
39 47
39 48
39 49
39 50
39 52
39 53
39 55
39 56
39 65
40 43
40 45
40 46
40 48
40 49
40 52
40 53
40 57
40 61
40 62
40 63
40 64
40 65
40 67
41 44
41 46
41 48
41 49
41 50
41 52
41 54
41 55
41 61
41 64
41 67
41 69
42 43
42 45
42 51
42 52
42 54
42 55
42 57
42 58
42 60
42 62
42 63
42 65
42 67
42 68
42 69
43 44
43 45
43 49
43 52
43 53
43 54
43 56
43 60
43 62
43 63
43 64
43 66
43 68
43 69
44 45
44 49
44 50
44 52
44 54
44 56
44 59
44 62
44 67
44 68
44 69
45 46
45 47
45 49
45 52
45 54
45 55
45 56
45 59
45 61
45 63
45 65
45 68
46 51
46 52
46 53
46 54
46 57
46 58
46 59
46 63
47 48
47 49
47 51
47 52
47 53
47 55
47 57
47 59
47 60
47 61
47 62
47 63
47 64
47 66
47 68
48 49
48 51
48 52
48 59
48 60
48 62
48 69
49 52
49 54
49 56
49 60
49 62
49 63
49 64
49 67
49 68
49 69
50 54
50 57
50 60
50 64
50 67
50 68
50 69
51 52
51 53
51 54
51 56
51 57
51 58
51 61
51 64
51 65
51 66
51 68
51 69
52 53
52 54
52 55
52 59
52 63
52 64
53 58
53 60
53 65
53 66
53 67
53 69
54 55
54 57
54 58
54 60
54 63
54 64
54 65
54 66
54 67
55 56
55 57
55 59
55 61
55 65
55 66
55 68
56 59
56 60
56 61
56 63
56 67
56 68
57 58
57 60
57 62
57 63
57 69
58 59
58 61
58 62
58 63
58 64
58 66
59 61
59 64
59 66
59 68
60 63
60 65
61 62
61 64
61 69
62 65
63 66
63 67
63 69
64 65
65 69
67 68
67 69
68 69
1 6
16 17
22 35
8 33
31 36
51 59
2 41
10 18
55 57
19 56
7 40
21 66
4 42
9 25
44 47
46 60
30 48
3 34
15 20
23 67
5 65
11 69
12 28
0 39
14 50
26 32
45 54
37 49
24 63
29 43
52 68
13 58
61 64
27 62
38 53
